c uprop, v00.0, 
c reading from data/prog985.c.cnf
c done reading: 0.002798
p cnf 139 643
-49 -63 0
49 63 0
-40 -57 0
40 57 0
-51 -53 0
51 53 0
-44 -47 0
44 47 0
-42 -55 0
42 55 0
-38 -45 0
38 45 0
-60 -66 0
60 66 0
63 -67 0
-63 67 0
-63 -68 0
63 68 0
-57 -63 69 0
-57 -67 69 0
-63 -67 69 0
57 63 -69 0
57 67 -69 0
63 67 -69 0
57 -69 -70 0
63 -69 -70 0
67 -69 -70 0
-57 69 70 0
-63 69 70 0
-67 69 70 0
-57 -63 -67 70 0
57 63 67 -70 0
-53 -57 71 0
-53 -69 71 0
-57 -69 71 0
53 57 -71 0
53 69 -71 0
57 69 -71 0
53 -71 -72 0
57 -71 -72 0
69 -71 -72 0
-53 71 72 0
-57 71 72 0
-69 71 72 0
-53 -57 -69 72 0
53 57 69 -72 0
-47 -53 73 0
-47 -71 73 0
-53 -71 73 0
47 53 -73 0
47 71 -73 0
53 71 -73 0
47 -73 -74 0
53 -73 -74 0
71 -73 -74 0
-47 73 74 0
-53 73 74 0
-71 73 74 0
-47 -53 -71 74 0
47 53 71 -74 0
-42 -47 75 0
-42 -73 75 0
-47 -73 75 0
42 47 -75 0
42 73 -75 0
47 73 -75 0
42 -75 -76 0
47 -75 -76 0
73 -75 -76 0
-42 75 76 0
-47 75 76 0
-73 75 76 0
-42 -47 -73 76 0
42 47 73 -76 0
-38 -42 77 0
-38 -75 77 0
-42 -75 77 0
38 42 -77 0
38 75 -77 0
42 75 -77 0
38 -77 -78 0
42 -77 -78 0
75 -77 -78 0
-38 77 78 0
-42 77 78 0
-75 77 78 0
-38 -42 -75 78 0
38 42 75 -78 0
-38 -60 79 0
-60 -77 79 0
-38 -77 79 0
38 60 -79 0
60 77 -79 0
38 77 -79 0
60 -65 -79 0
38 -65 -79 0
-65 77 -79 0
-60 65 79 0
-38 65 79 0
65 -77 79 0
-38 -60 65 -77 0
38 60 -65 77 0
60 -62 0
-62 79 0
-60 62 -79 0
-56 -60 -79 0
-56 60 79 0
56 -60 79 0
56 60 -79 0
-52 70 0
52 -70 0
-46 -70 0
46 70 0
41 -63 -72 0
41 -52 -72 0
41 -52 -63 0
-41 63 72 0
-41 52 72 0
-41 52 63 0
-37 -41 72 0
-37 -41 63 0
-37 -41 52 0
37 41 -72 0
37 41 -63 0
37 41 -52 0
37 -52 -63 -72 0
-37 52 63 72 0
-57 59 -74 0
-41 59 -74 0
-41 -57 59 0
57 -59 74 0
41 -59 74 0
41 57 -59 0
-36 -59 74 0
-36 57 -59 0
-36 41 -59 0
36 59 -74 0
36 -57 59 0
36 -41 59 0
36 -41 -57 -74 0
-36 41 57 74 0
35 -53 -76 0
35 -59 -76 0
35 -53 -59 0
-35 53 76 0
-35 59 76 0
-35 53 59 0
-34 -35 76 0
-34 -35 53 0
-34 -35 59 0
34 35 -76 0
34 35 -53 0
34 35 -59 0
34 -53 -59 -76 0
-34 53 59 76 0
33 -47 -78 0
33 -35 -78 0
33 -35 -47 0
-33 47 78 0
-33 35 78 0
-33 35 47 0
-32 -33 78 0
-32 -33 47 0
-32 -33 35 0
32 33 -78 0
32 33 -47 0
32 33 -35 0
32 -35 -47 -78 0
-32 35 47 78 0
31 -42 -65 0
31 -33 -65 0
31 -33 -42 0
-31 42 65 0
-31 33 65 0
-31 33 42 0
-30 -31 65 0
-30 -31 42 0
-30 -31 33 0
30 31 -65 0
30 31 -42 0
30 31 -33 0
30 -33 -42 -65 0
-30 33 42 65 0
29 -38 -56 0
29 -31 -56 0
29 -31 -38 0
-29 38 56 0
-29 31 56 0
-29 31 38 0
-28 -29 56 0
-28 -29 38 0
-28 -29 31 0
28 29 -56 0
28 29 -38 0
28 29 -31 0
28 -31 -38 -56 0
-28 31 38 56 0
27 -60 -62 0
27 -29 -62 0
27 -29 -60 0
-27 60 62 0
-27 29 62 0
-27 29 60 0
-26 -27 62 0
-26 -27 60 0
-26 -27 29 0
26 27 -62 0
26 27 -60 0
26 27 -29 0
26 -29 -60 -62 0
-26 29 60 62 0
-25 37 0
25 -37 0
-24 -37 0
24 37 0
23 -36 -63 0
23 -25 -36 0
23 -25 -63 0
-23 36 63 0
-23 25 36 0
-23 25 63 0
-22 -23 36 0
-22 -23 63 0
-22 -23 25 0
22 23 -36 0
22 23 -63 0
22 23 -25 0
22 -25 -36 -63 0
-22 25 36 63 0
21 -34 -57 0
21 -23 -34 0
21 -23 -57 0
-21 34 57 0
-21 23 34 0
-21 23 57 0
-20 -21 34 0
-20 -21 57 0
-20 -21 23 0
20 21 -34 0
20 21 -57 0
20 21 -23 0
20 -23 -34 -57 0
-20 23 34 57 0
19 -32 -53 0
19 -21 -32 0
19 -21 -53 0
-19 32 53 0
-19 21 32 0
-19 21 53 0
-18 -19 32 0
-18 -19 53 0
-18 -19 21 0
18 19 -32 0
18 19 -53 0
18 19 -21 0
18 -21 -32 -53 0
-18 21 32 53 0
17 -30 -47 0
17 -19 -30 0
17 -19 -47 0
-17 30 47 0
-17 19 30 0
-17 19 47 0
-16 -17 30 0
-16 -17 47 0
-16 -17 19 0
16 17 -30 0
16 17 -47 0
16 17 -19 0
16 -19 -30 -47 0
-16 19 30 47 0
15 -28 -42 0
15 -17 -28 0
15 -17 -42 0
-15 28 42 0
-15 17 28 0
-15 17 42 0
-14 -15 28 0
-14 -15 42 0
-14 -15 17 0
14 15 -28 0
14 15 -42 0
14 15 -17 0
14 -17 -28 -42 0
-14 17 28 42 0
13 -26 -38 0
13 -15 -26 0
13 -15 -38 0
-13 26 38 0
-13 15 26 0
-13 15 38 0
-13 26 -80 0
-13 38 -80 0
-13 15 -80 0
13 -26 80 0
13 -38 80 0
13 -15 80 0
-15 -26 -38 80 0
15 26 38 -80 0
-27 -60 81 0
-13 -27 81 0
-13 -60 81 0
27 60 -81 0
13 27 -81 0
13 60 -81 0
27 -81 -82 0
60 -81 -82 0
13 -81 -82 0
-27 81 82 0
-60 81 82 0
-13 81 82 0
-13 -27 -60 82 0
13 27 60 -82 0
-68 -83 0
68 83 0
-46 -84 0
46 84 0
-24 -85 0
24 85 0
-22 -86 0
22 86 0
-20 -87 0
20 87 0
-18 -88 0
18 88 0
-16 -89 0
16 89 0
-14 -90 0
14 90 0
-80 -91 0
80 91 0
-82 -92 0
82 92 0
-81 -93 0
81 93 0
-94 -96 0
-96 -97 0
94 96 97 0
94 97 -99 0
-94 -97 -99 0
-94 97 99 0
94 -97 99 0
96 -100 0
-100 -101 0
-96 100 101 0
-96 101 -103 0
96 -101 -103 0
96 101 103 0
-96 -101 103 0
100 -104 0
-104 -105 0
-100 104 105 0
-100 105 -107 0
100 -105 -107 0
100 105 107 0
-100 -105 107 0
104 -108 0
-108 -109 0
-104 108 109 0
-104 109 -111 0
104 -109 -111 0
104 109 111 0
-104 -109 111 0
108 -112 0
-112 -113 0
-108 112 113 0
-108 113 -115 0
108 -113 -115 0
108 113 115 0
-108 -113 115 0
112 -116 0
-116 -117 0
-112 116 117 0
-112 117 -119 0
112 -117 -119 0
112 117 119 0
-112 -117 119 0
-64 116 0
-64 -120 0
64 -116 120 0
-58 -116 120 0
-58 116 -120 0
58 116 120 0
58 -116 -120 0
-54 97 0
-54 94 0
54 -94 -97 0
-48 -94 -97 0
-48 94 97 0
48 94 -97 0
48 -94 97 0
43 -97 -101 0
43 -54 -101 0
43 -54 -97 0
-43 97 101 0
-43 54 101 0
-43 54 97 0
-39 -43 101 0
-39 -43 97 0
-39 -43 54 0
39 43 -101 0
39 43 -97 0
39 43 -54 0
39 -54 -97 -101 0
-39 54 97 101 0
61 -101 -105 0
-43 61 -105 0
-43 61 -101 0
-61 101 105 0
43 -61 105 0
43 -61 101 0
-61 -95 105 0
-61 -95 101 0
43 -61 -95 0
61 95 -105 0
61 95 -101 0
-43 61 95 0
-43 95 -101 -105 0
43 -95 101 105 0
98 -105 -109 0
-61 98 -109 0
-61 98 -105 0
-98 105 109 0
61 -98 109 0
61 -98 105 0
-98 -102 109 0
-98 -102 105 0
61 -98 -102 0
98 102 -109 0
98 102 -105 0
-61 98 102 0
-61 102 -105 -109 0
61 -102 105 109 0
106 -109 -113 0
-98 106 -113 0
-98 106 -109 0
-106 109 113 0
98 -106 113 0
98 -106 109 0
-106 -110 113 0
-106 109 -110 0
98 -106 -110 0
106 110 -113 0
106 -109 110 0
-98 106 110 0
-98 -109 110 -113 0
98 109 -110 113 0
-113 114 -117 0
-106 114 -117 0
-106 -113 114 0
113 -114 117 0
106 -114 117 0
106 113 -114 0
-114 117 -118 0
113 -114 -118 0
106 -114 -118 0
114 -117 118 0
-113 114 118 0
-106 114 118 0
-106 -113 -117 118 0
106 113 117 -118 0
-117 -120 121 0
-114 -120 121 0
-114 -117 121 0
117 120 -121 0
114 120 -121 0
114 117 -121 0
120 -121 -122 0
117 -121 -122 0
114 -121 -122 0
-120 121 122 0
-117 121 122 0
-114 121 122 0
-114 -117 -120 122 0
114 117 120 -122 0
120 -123 0
121 -123 0
-120 -121 123 0
-120 -121 -124 0
120 121 -124 0
-120 121 124 0
120 -121 124 0
-94 -125 0
-48 -125 0
48 94 125 0
48 94 -126 0
-48 -94 -126 0
48 -94 126 0
-48 94 126 0
125 -127 0
-39 -127 0
39 -125 127 0
39 -125 -128 0
-39 125 -128 0
39 125 128 0
-39 -125 128 0
127 -129 0
-95 -129 0
95 -127 129 0
95 -127 -130 0
-95 127 -130 0
95 127 130 0
-95 -127 130 0
129 -131 0
-102 -131 0
102 -129 131 0
102 -129 -132 0
-102 129 -132 0
102 129 132 0
-102 -129 132 0
131 -133 0
-110 -133 0
110 -131 133 0
110 -131 -134 0
-110 131 -134 0
110 131 134 0
-110 -131 134 0
133 -135 0
-118 -135 0
118 -133 135 0
118 -133 -136 0
-118 133 -136 0
118 133 136 0
-118 -133 136 0
135 -137 0
-122 -137 0
122 -135 137 0
122 -135 -138 0
-122 135 -138 0
122 135 138 0
-122 -135 138 0
-50 137 0
-50 -124 0
50 124 -137 0
124 -137 -139 0
-124 137 -139 0
124 137 139 0
-124 -137 139 0
-12 50 0
-12 -123 0
12 -50 123 0
-11 -50 123 0
-11 50 -123 0
11 50 123 0
11 -50 -123 0
-10 68 0
-10 94 0
10 -68 -94 0
-68 94 0
68 -94 0
9 -46 -48 0
9 -10 -46 0
9 -10 -48 0
-9 46 48 0
-9 10 46 0
-9 10 48 0
-9 46 0
-9 48 0
-9 10 0
10 46 48 0
8 -24 -39 0
8 -9 -24 0
8 -9 -39 0
-8 24 39 0
-8 9 24 0
-8 9 39 0
-8 24 0
-8 39 0
-8 9 0
9 24 39 0
7 -22 -95 0
7 -8 -22 0
7 -8 -95 0
-7 22 95 0
-7 8 22 0
-7 8 95 0
-7 22 0
-7 95 0
-7 8 0
8 22 95 0
6 -20 -102 0
6 -7 -20 0
6 -7 -102 0
-6 20 102 0
-6 7 20 0
-6 7 102 0
-6 20 0
-6 102 0
-6 7 0
7 20 102 0
5 -18 -110 0
5 -6 -18 0
5 -6 -110 0
-5 18 110 0
-5 6 18 0
-5 6 110 0
5 -18 0
5 -110 0
5 -6 0
-6 -18 -110 0
4 -16 -118 0
4 -5 -16 0
4 -5 -118 0
-4 16 118 0
-4 5 16 0
-4 5 118 0
4 -16 0
4 -118 0
4 -5 0
-5 -16 -118 0
3 -14 -122 0
3 -4 -14 0
3 -4 -122 0
-3 14 122 0
-3 4 14 0
-3 4 122 0
3 -14 0
3 -122 0
3 -4 0
-4 -14 -122 0
2 -80 -124 0
2 -3 -80 0
2 -3 -124 0
-2 80 124 0
-2 3 80 0
-2 3 124 0
2 -80 0
2 -124 0
2 -3 0
-3 -80 -124 0
1 -82 -123 0
1 -2 -82 0
1 -2 -123 0
-1 82 123 0
-1 2 82 0
-1 2 123 0
1 -82 0
1 -123 0
1 -2 0
-2 -82 -123 0
-1 -81 0
1 -81 0
-1 81 0
